NAME          QPSAMPLE
ROWS
 N  OBJ
 G  C1
COLUMNS
    X         C1               1.0
    Y         C1               1.0
RHS
    RHS       C1               1.0
QUADOBJ
    X         X                2.0
    Y         Y                2.0
ENDATA
